c nIsolatedPIs 4
c maxPI 12
p cnf 33 64
c gate 13 2 8 0
2 -13 0
8 -13 0
-2 -8 13 0
c gate 14 1 7 0
1 -14 0
7 -14 0
-1 -7 14 0
c gate 15 -13 -14 0
-13 -15 0
-14 -15 0
13 14 15 0
c gate 16 -3 -9 0
-3 -16 0
-9 -16 0
3 9 16 0
c gate 17 -2 -8 0
-2 -17 0
-8 -17 0
2 8 17 0
c gate 18 -16 -17 0
-16 -18 0
-17 -18 0
16 17 18 0
c gate 19 -15 18 0
-15 -19 0
18 -19 0
15 -18 19 0
c gate 20 3 9 0
3 -20 0
9 -20 0
-3 -9 20 0
c gate 21 4 10 0
4 -21 0
10 -21 0
-4 -10 21 0
c gate 22 -20 -21 0
-20 -22 0
-21 -22 0
20 21 22 0
c gate 23 -19 22 0
-19 -23 0
22 -23 0
19 -22 23 0
c gate 24 5 -11 0
5 -24 0
-11 -24 0
-5 11 24 0
c gate 25 -5 11 0
-5 -25 0
11 -25 0
5 -11 25 0
c gate 26 -24 -25 0
-24 -26 0
-25 -26 0
24 25 26 0
c gate 27 -4 -10 0
-4 -27 0
-10 -27 0
4 10 27 0
c gate 28 -6 -12 0
-6 -28 0
-12 -28 0
6 12 28 0
c gate 29 6 12 0
6 -29 0
12 -29 0
-6 -12 29 0
c gate 30 -28 -29 0
-28 -30 0
-29 -30 0
28 29 30 0
c gate 31 -27 30 0
-27 -31 0
30 -31 0
27 -30 31 0
c gate 32 -26 31 0
-26 -32 0
31 -32 0
26 -31 32 0
c gate 33 -23 32 0
-23 -33 0
32 -33 0
23 -32 33 0
c PO
33 0
